n_res = 4;
rc = [ 28, 23, 25, 27 ];
n_tasks = 30;
d = [ 3, 7, 7, 4, 2, 8, 3, 3, 1, 3, 9, 8, 5, 2, 9, 1, 10, 4, 1, 5, 1, 6, 2, 10, 5, 1, 7, 7, 4, 2 ];
rr = [| 5, 2, 9, 8, 3, 2, 8, 10, 2, 10, 3, 2, 6, 10, 10, 8, 1, 9, 2, 8, 4, 7, 1, 4, 2, 4, 5, 8, 4, 3
      | 10, 8, 4, 10, 3, 10, 3, 5, 7, 3, 2, 2, 8, 4, 4, 5, 7, 6, 3, 3, 5, 2, 4, 6, 7, 3, 7, 8, 9, 4
      | 9, 10, 1, 2, 9, 4, 3, 2, 1, 4, 5, 4, 7, 8, 7, 1, 9, 10, 10, 10, 8, 5, 4, 1, 2, 5, 9, 1, 10, 3
      | 5, 6, 5, 6, 1, 8, 1, 7, 5, 10, 5, 4, 8, 1, 7, 5, 2, 4, 6, 6, 8, 2, 1, 6, 9, 9, 2, 9, 10, 1 |];
suc = [ { 2 }, 
        { 1 }, 
        { 4 }, 
        { 3 }, 
        { 6 }, 
        { 5 }, 
        { 8 }, 
        { 7 }, 
        { 10 }, 
        { 9 }, 
        { 12 }, 
        { 11 }, 
        { 14 }, 
        { 13 }, 
        { 16 }, 
        { 15 }, 
        { 18 }, 
        { 17 }, 
        { 20 }, 
        { 19 }, 
        { 22 }, 
        { 21 }, 
        { 24 }, 
        { 23 }, 
        { 26 }, 
        { 25 }, 
        { 28 }, 
        { 27 }, 
        { 30 }, 
        { 29 }]; 
